COLUMNS

passenger_count
pickup_ID
dropoff_ID
request_time_sec
pickup_district
dropoff_district
LDuals
IDuals
vehicle_ID
pick_position
drop_position

REQUESTS_INFO
3      815       895       32103     290       291       159       159       210       1         3         
1      475       596       32115     52        131       99        99        220       1         2         
1      314       399       32121     119       168       117       117       517       1         3         
2      478       522       32125     52        52        99        99        536       1         2         
3      863       740       32088     290       50        202       202       671       1         2         
1      937       545       32122     291       52        85        85        894       1         3         
1      793       573       32116     290       189       130       130       1246      1         3         
2      1001      922       32130     291       50        0         0         0         0         0         
1      745       533       32130     290       199       0         0         0         0         0         
1      793       527       32130     290       52        0         0         0         0         0         
1      505       668       32130     52        280       0         0         0         0         0         
1      723       118       32131     290       286       0         0         0         0         0         
1      1068      723       32131     291       290       0         0         0         0         0         
2      793       925       32131     290       290       0         0         0         0         0         
1      760       778       32131     291       131       0         0         0         0         0         
2      704       526       32132     290       52        0         0         0         0         0         
1      950       925       32132     290       290       0         0         0         0         0         
1      860       31        32132     290       9         0         0         0         0         0         
1      133       156       32132     9         286       0         0         0         0         0         
1      768       726       32133     290       290       0         0         0         0         0         
4      671       621       32133     280       280       0         0         0         0         0         
1      598       230       32133     189       266       0         0         0         0         0         
1      924       698       32133     290       189       0         0         0         0         0         
3      688       574       32134     131       189       0         0         0         0         0         
1      59        137       32134     999       286       0         0         0         0         0         
2      847       116       32134     291       9         0         0         0         0         0         
1      78        19        32134     9         98        0         0         0         0         0         
1      337       395       32135     277       100       0         0         0         0         0         
1      600       662       32135     280       131       0         0         0         0         0         
3      969       789       32135     290       290       0         0         0         0         0         
2      969       789       32135     290       290       0         0         0         0         0         
2      909       906       32136     290       290       0         0         0         0         0         
3      909       906       32136     290       290       0         0         0         0         0         
1      454       81        32136     52        98        0         0         0         0         0         
1      350       459       32136     127       189       0         0         0         0         0         
3      479       679       32137     52        290       0         0         0         0         0         
3      479       679       32137     52        290       0         0         0         0         0         
1      905       768       32139     290       290       0         0         0         0         0         
1      527       671       32139     52        280       0         0         0         0         0         
2      527       9         32139     52        98        0         0         0         0         0         
1      841       716       32139     290       189       0         0         0         0         0         
1      654       630       32140     189       189       0         0         0         0         0         
1      924       628       32140     290       189       0         0         0         0         0         
1      259       293       32141     87        87        0         0         0         0         0         
1      96        680       32141     9         290       0         0         0         0         0         
2      393       288       32142     52        127       0         0         0         0         0         
1      1043      116       32142     291       9         0         0         0         0         0         
1      698       628       32142     189       189       0         0         0         0         0         
2      701       728       32142     290       290       0         0         0         0         0         
1      629       772       32142     189       290       0         0         0         0         0         
1      749       1010      32143     290       290       0         0         0         0         0         
1      909       727       32143     290       290       0         0         0         0         0         
1      1207      1244      32143     192       192       0         0         0         0         0         
3      528       662       32143     52        131       0         0         0         0         0         
3      528       662       32143     52        131       0         0         0         0         0         
1      596       189       32144     131       286       0         0         0         0         0         
1      690       981       32144     131       291       0         0         0         0         0         
1      850       969       32144     291       290       0         0         0         0         0         
1      885       652       32144     290       189       0         0         0         0         0         
1      253       308       32145     206       127       0         0         0         0         0         
1      838       526       32145     290       52        0         0         0         0         0         
1      386       738       32145     299       189       0         0         0         0         0         
1      665       692       32146     131       280       0         0         0         0         0         
3      783       697       32146     50        189       0         0         0         0         0         
1      892       760       32146     291       291       0         0         0         0         0         
2      783       697       32146     50        189       0         0         0         0         0         
1      459       526       32147     189       52        0         0         0         0         0         
1      805       766       32147     291       290       0         0         0         0         0         
2      722       814       32147     290       290       0         0         0         0         0         
1      768       722       32147     290       290       0         0         0         0         0         
2      629       766       32147     189       290       0         0         0         0         0         
1      852       871       32148     291       291       0         0         0         0         0         
1      189       601       32148     286       189       0         0         0         0         0         
1      466       605       32148     199       189       0         0         0         0         0         
2      923       895       32148     290       291       0         0         0         0         0         
1      811       604       32149     290       189       0         0         0         0         0         
1      78        21        32149     9         98        0         0         0         0         0         
1      738       747       32149     189       290       0         0         0         0         0         
2      1253      1251      32151     129       129       0         0         0         0         0         
1      970       621       32151     290       280       0         0         0         0         0         
4      507       528       32151     189       52        0         0         0         0         0         
1      924       1011      32151     290       84        0         0         0         0         0         
1      417       531       32151     100       189       0         0         0         0         0         
1      793       627       32151     290       189       0         0         0         0         0         
1      117       189       32151     286       286       0         0         0         0         0         
1      328       275       32152     299       87        0         0         0         0         0         
1      306       767       32152     299       290       0         0         0         0         0         
2      652       700       32152     189       290       0         0         0         0         0         
1      1078      1010      32152     84        290       0         0         0         0         0         
1      535       389       32153     189       299       0         0         0         0         0         
2      738       534       32153     189       199       0         0         0         0         0         
1      721       703       32153     290       290       0         0         0         0         0         
1      534       656       32153     199       290       0         0         0         0         0         
1      476       80        32153     52        98        0         0         0         0         0         
2      175       573       32154     266       189       0         0         0         0         0         
1      534       606       32154     199       189       0         0         0         0         0         
1      1048      940       32155     291       291       0         0         0         0         0         
3      1457      1457      32156     999       999       0         0         0         0         0         
1      421       511       32156     168       199       0         0         0         0         0         
1      791       741       32156     290       50        0         0         0         0         0         
1      1225      749       32156     192       290       0         0         0         0         0         
1      926       741       32158     290       50        0         0         0         0         0         
3      741       816       32158     50        290       0         0         0         0         0         
1      905       858       32158     290       290       0         0         0         0         0         
3      837       1066      32158     290       291       0         0         0         0         0         
3      837       1066      32158     290       291       0         0         0         0         0         
3      510       593       32159     199       52        0         0         0         0         0         
1      959       619       32159     291       131       0         0         0         0         0         
1      466       578       32159     199       189       0         0         0         0         0         
